PROBLEM NAME: 	p654-TTP
KNAPSACK DATA TYPE: uncorrelated, similar weights
DIMENSION:	654
NUMBER OF ITEMS: 	653
CAPACITY OF KNAPSACK: 	178903
MIN SPEED: 	0.1
MAX SPEED: 	1
RENTING RATIO: 	1.20
EDGE_WEIGHT_TYPE:	CEIL_2D
NODE_COORD_SECTION	(INDEX, X, Y): 
1	1.24500e+03	1.25500e+03
2	1.80750e+03	2.19250e+03
3	1.82250e+03	2.20750e+03
4	1.86750e+03	2.73250e+03
5	2.37750e+03	2.61250e+03
6	2.46750e+03	3.58750e+03
7	2.49750e+03	3.58750e+03
8	2.57250e+03	3.67750e+03
9	2.64750e+03	3.78250e+03
10	2.66250e+03	3.97750e+03
11	3.30750e+03	3.37750e+03
12	3.33750e+03	3.34750e+03
13	3.32250e+03	3.63250e+03
14	3.71250e+03	3.67750e+03
15	4.26750e+03	2.37250e+03
16	5.65500e+03	1.25500e+03
17	4.85250e+03	2.50750e+03
18	4.88250e+03	3.49750e+03
19	4.85250e+03	3.61750e+03
20	4.40250e+03	4.06750e+03
21	4.41750e+03	4.05250e+03
22	4.23750e+03	4.02250e+03
23	4.26750e+03	4.00750e+03
24	4.40250e+03	4.00750e+03
25	4.35750e+03	3.97750e+03
26	4.41750e+03	3.96250e+03
27	4.35750e+03	3.94750e+03
28	4.31250e+03	3.93250e+03
29	4.25250e+03	3.93250e+03
30	4.22250e+03	3.90250e+03
31	4.32750e+03	3.88750e+03
32	4.29750e+03	3.87250e+03
33	4.29750e+03	3.84250e+03
34	4.32750e+03	3.82750e+03
35	4.20750e+03	3.82750e+03
36	4.22250e+03	3.76750e+03
37	4.25250e+03	3.76750e+03
38	4.35750e+03	3.75250e+03
39	4.35750e+03	3.72250e+03
40	4.23750e+03	3.72250e+03
41	4.26750e+03	3.70750e+03
42	4.31250e+03	3.69250e+03
43	4.25250e+03	3.66250e+03
44	4.31250e+03	3.64750e+03
45	4.29750e+03	3.63250e+03
46	4.34250e+03	3.61750e+03
47	4.22250e+03	3.60250e+03
48	4.32750e+03	3.58750e+03
49	4.32750e+03	3.52750e+03
50	4.38750e+03	3.46750e+03
51	4.28250e+03	3.46750e+03
52	4.20750e+03	3.46750e+03
53	4.34250e+03	3.43750e+03
54	4.32750e+03	3.42250e+03
55	4.32750e+03	3.39250e+03
56	4.34250e+03	3.37750e+03
57	4.23750e+03	3.36250e+03
58	4.38750e+03	3.31750e+03
59	4.31250e+03	3.27250e+03
60	4.22250e+03	3.25750e+03
61	4.20750e+03	3.22750e+03
62	3.69750e+03	3.48250e+03
63	2.69250e+03	4.66750e+03
64	2.64750e+03	4.68250e+03
65	3.06750e+03	4.92250e+03
66	3.12750e+03	5.04250e+03
67	3.08250e+03	5.08750e+03
68	3.00750e+03	5.11750e+03
69	3.14250e+03	5.22250e+03
70	2.70750e+03	5.11750e+03
71	2.69250e+03	5.05750e+03
72	2.57250e+03	5.02750e+03
73	2.37750e+03	5.13250e+03
74	1.47750e+03	4.02250e+03
75	1.23750e+03	3.99250e+03
76	1.35750e+03	3.96250e+03
77	1.41750e+03	3.93250e+03
78	1.25250e+03	3.93250e+03
79	1.31250e+03	3.90250e+03
80	1.28250e+03	3.82750e+03
81	1.37250e+03	3.82750e+03
82	1.50750e+03	3.82750e+03
83	1.26750e+03	3.81250e+03
84	1.28250e+03	3.79750e+03
85	1.26750e+03	3.76750e+03
86	1.43250e+03	3.76750e+03
87	1.37250e+03	3.73750e+03
88	1.32750e+03	3.72250e+03
89	1.26750e+03	3.70750e+03
90	1.49250e+03	3.66250e+03
91	1.26750e+03	3.63250e+03
92	1.35750e+03	3.60250e+03
93	1.50750e+03	3.58750e+03
94	1.26750e+03	3.57250e+03
95	1.38750e+03	3.52750e+03
96	1.34250e+03	3.51250e+03
97	1.32750e+03	3.45250e+03
98	1.34250e+03	3.37750e+03
99	1.32750e+03	3.31750e+03
100	1.43250e+03	3.27250e+03
101	1.46250e+03	3.25750e+03
102	1.40250e+03	3.22750e+03
103	1.80750e+03	4.71250e+03
104	1.82250e+03	4.72750e+03
105	1.86750e+03	5.25250e+03
106	1.24500e+03	5.84500e+03
107	1.04250e+03	2.46250e+03
108	1.05750e+03	2.46250e+03
109	1.07250e+03	2.46250e+03
110	1.08750e+03	2.46250e+03
111	1.04250e+03	2.47750e+03
112	1.05750e+03	2.47750e+03
113	1.07250e+03	2.47750e+03
114	1.08750e+03	2.47750e+03
115	1.04250e+03	2.49250e+03
116	1.05750e+03	2.49250e+03
117	1.07250e+03	2.49250e+03
118	1.08750e+03	2.49250e+03
119	1.04250e+03	2.50750e+03
120	1.05750e+03	2.50750e+03
121	1.07250e+03	2.50750e+03
122	1.08750e+03	2.50750e+03
123	1.04250e+03	2.52250e+03
124	1.05750e+03	2.52250e+03
125	1.07250e+03	2.52250e+03
126	1.08750e+03	2.52250e+03
127	1.04250e+03	2.53750e+03
128	1.05750e+03	2.53750e+03
129	1.07250e+03	2.53750e+03
130	1.08750e+03	2.53750e+03
131	1.04250e+03	2.55250e+03
132	1.05750e+03	2.55250e+03
133	1.07250e+03	2.55250e+03
134	1.08750e+03	2.55250e+03
135	1.04250e+03	2.56750e+03
136	1.05750e+03	2.56750e+03
137	1.07250e+03	2.56750e+03
138	1.08750e+03	2.56750e+03
139	1.04250e+03	2.58250e+03
140	1.05750e+03	2.58250e+03
141	1.07250e+03	2.58250e+03
142	1.08750e+03	2.58250e+03
143	1.04250e+03	2.59750e+03
144	1.05750e+03	2.59750e+03
145	1.07250e+03	2.59750e+03
146	1.08750e+03	2.59750e+03
147	1.04250e+03	2.61250e+03
148	1.05750e+03	2.61250e+03
149	1.07250e+03	2.61250e+03
150	1.08750e+03	2.61250e+03
151	1.04250e+03	2.62750e+03
152	1.05750e+03	2.62750e+03
153	1.07250e+03	2.62750e+03
154	1.08750e+03	2.62750e+03
155	1.04250e+03	2.64250e+03
156	1.05750e+03	2.64250e+03
157	1.07250e+03	2.64250e+03
158	1.08750e+03	2.64250e+03
159	1.04250e+03	2.65750e+03
160	1.05750e+03	2.65750e+03
161	1.07250e+03	2.65750e+03
162	1.08750e+03	2.65750e+03
163	1.04250e+03	2.67250e+03
164	1.05750e+03	2.67250e+03
165	1.07250e+03	2.67250e+03
166	1.08750e+03	2.67250e+03
167	1.04250e+03	2.68750e+03
168	1.05750e+03	2.68750e+03
169	1.07250e+03	2.68750e+03
170	1.08750e+03	2.68750e+03
171	1.04250e+03	2.70250e+03
172	1.05750e+03	2.70250e+03
173	1.07250e+03	2.70250e+03
174	1.08750e+03	2.70250e+03
175	1.04250e+03	2.71750e+03
176	1.05750e+03	2.71750e+03
177	1.07250e+03	2.71750e+03
178	1.08750e+03	2.71750e+03
179	1.04250e+03	2.73250e+03
180	1.05750e+03	2.73250e+03
181	1.07250e+03	2.73250e+03
182	1.08750e+03	2.73250e+03
183	1.04250e+03	2.74750e+03
184	1.05750e+03	2.74750e+03
185	1.07250e+03	2.74750e+03
186	1.08750e+03	2.74750e+03
187	1.04250e+03	2.76250e+03
188	1.05750e+03	2.76250e+03
189	1.07250e+03	2.76250e+03
190	1.08750e+03	2.76250e+03
191	1.04250e+03	2.77750e+03
192	1.05750e+03	2.77750e+03
193	1.07250e+03	2.77750e+03
194	1.08750e+03	2.77750e+03
195	1.04250e+03	2.79250e+03
196	1.05750e+03	2.79250e+03
197	1.07250e+03	2.79250e+03
198	1.08750e+03	2.79250e+03
199	1.04250e+03	2.80750e+03
200	1.05750e+03	2.80750e+03
201	1.07250e+03	2.80750e+03
202	1.08750e+03	2.80750e+03
203	1.04250e+03	4.95250e+03
204	1.05750e+03	4.95250e+03
205	1.07250e+03	4.95250e+03
206	1.08750e+03	4.95250e+03
207	1.04250e+03	4.96750e+03
208	1.05750e+03	4.96750e+03
209	1.07250e+03	4.96750e+03
210	1.08750e+03	4.96750e+03
211	1.04250e+03	4.98250e+03
212	1.05750e+03	4.98250e+03
213	1.07250e+03	4.98250e+03
214	1.08750e+03	4.98250e+03
215	1.04250e+03	4.99750e+03
216	1.05750e+03	4.99750e+03
217	1.07250e+03	4.99750e+03
218	1.08750e+03	4.99750e+03
219	1.04250e+03	5.01250e+03
220	1.05750e+03	5.01250e+03
221	1.07250e+03	5.01250e+03
222	1.08750e+03	5.01250e+03
223	1.04250e+03	5.02750e+03
224	1.05750e+03	5.02750e+03
225	1.07250e+03	5.02750e+03
226	1.08750e+03	5.02750e+03
227	1.04250e+03	5.04250e+03
228	1.05750e+03	5.04250e+03
229	1.07250e+03	5.04250e+03
230	1.08750e+03	5.04250e+03
231	1.04250e+03	5.05750e+03
232	1.05750e+03	5.05750e+03
233	1.07250e+03	5.05750e+03
234	1.08750e+03	5.05750e+03
235	1.04250e+03	5.07250e+03
236	1.05750e+03	5.07250e+03
237	1.07250e+03	5.07250e+03
238	1.08750e+03	5.07250e+03
239	1.04250e+03	5.08750e+03
240	1.05750e+03	5.08750e+03
241	1.07250e+03	5.08750e+03
242	1.08750e+03	5.08750e+03
243	1.04250e+03	5.10250e+03
244	1.05750e+03	5.10250e+03
245	1.07250e+03	5.10250e+03
246	1.08750e+03	5.10250e+03
247	1.04250e+03	5.11750e+03
248	1.05750e+03	5.11750e+03
249	1.07250e+03	5.11750e+03
250	1.08750e+03	5.11750e+03
251	1.04250e+03	5.13250e+03
252	1.05750e+03	5.13250e+03
253	1.07250e+03	5.13250e+03
254	1.08750e+03	5.13250e+03
255	1.04250e+03	5.14750e+03
256	1.05750e+03	5.14750e+03
257	1.07250e+03	5.14750e+03
258	1.08750e+03	5.14750e+03
259	1.04250e+03	5.16250e+03
260	1.05750e+03	5.16250e+03
261	1.07250e+03	5.16250e+03
262	1.08750e+03	5.16250e+03
263	1.04250e+03	5.17750e+03
264	1.05750e+03	5.17750e+03
265	1.07250e+03	5.17750e+03
266	1.08750e+03	5.17750e+03
267	1.04250e+03	5.19250e+03
268	1.05750e+03	5.19250e+03
269	1.07250e+03	5.19250e+03
270	1.08750e+03	5.19250e+03
271	1.04250e+03	5.20750e+03
272	1.05750e+03	5.20750e+03
273	1.07250e+03	5.20750e+03
274	1.08750e+03	5.20750e+03
275	1.04250e+03	5.22250e+03
276	1.05750e+03	5.22250e+03
277	1.07250e+03	5.22250e+03
278	1.08750e+03	5.22250e+03
279	1.04250e+03	5.23750e+03
280	1.05750e+03	5.23750e+03
281	1.07250e+03	5.23750e+03
282	1.08750e+03	5.23750e+03
283	1.04250e+03	5.25250e+03
284	1.05750e+03	5.25250e+03
285	1.07250e+03	5.25250e+03
286	1.08750e+03	5.25250e+03
287	1.04250e+03	5.26750e+03
288	1.05750e+03	5.26750e+03
289	1.07250e+03	5.26750e+03
290	1.08750e+03	5.26750e+03
291	1.04250e+03	5.28250e+03
292	1.05750e+03	5.28250e+03
293	1.07250e+03	5.28250e+03
294	1.08750e+03	5.28250e+03
295	1.04250e+03	5.29750e+03
296	1.05750e+03	5.29750e+03
297	1.07250e+03	5.29750e+03
298	1.08750e+03	5.29750e+03
299	5.81250e+03	2.46250e+03
300	5.82750e+03	2.46250e+03
301	5.84250e+03	2.46250e+03
302	5.85750e+03	2.46250e+03
303	5.81250e+03	2.47750e+03
304	5.82750e+03	2.47750e+03
305	5.84250e+03	2.47750e+03
306	5.85750e+03	2.47750e+03
307	5.81250e+03	2.49250e+03
308	5.82750e+03	2.49250e+03
309	5.84250e+03	2.49250e+03
310	5.85750e+03	2.49250e+03
311	5.81250e+03	2.50750e+03
312	5.82750e+03	2.50750e+03
313	5.84250e+03	2.50750e+03
314	5.85750e+03	2.50750e+03
315	5.81250e+03	2.52250e+03
316	5.82750e+03	2.52250e+03
317	5.84250e+03	2.52250e+03
318	5.85750e+03	2.52250e+03
319	5.81250e+03	2.53750e+03
320	5.82750e+03	2.53750e+03
321	5.84250e+03	2.53750e+03
322	5.85750e+03	2.53750e+03
323	5.81250e+03	2.55250e+03
324	5.82750e+03	2.55250e+03
325	5.84250e+03	2.55250e+03
326	5.85750e+03	2.55250e+03
327	5.81250e+03	2.56750e+03
328	5.82750e+03	2.56750e+03
329	5.84250e+03	2.56750e+03
330	5.85750e+03	2.56750e+03
331	5.81250e+03	2.58250e+03
332	5.82750e+03	2.58250e+03
333	5.84250e+03	2.58250e+03
334	5.85750e+03	2.58250e+03
335	5.81250e+03	2.59750e+03
336	5.82750e+03	2.59750e+03
337	5.84250e+03	2.59750e+03
338	5.85750e+03	2.59750e+03
339	5.81250e+03	2.61250e+03
340	5.82750e+03	2.61250e+03
341	5.84250e+03	2.61250e+03
342	5.85750e+03	2.61250e+03
343	5.81250e+03	2.62750e+03
344	5.82750e+03	2.62750e+03
345	5.84250e+03	2.62750e+03
346	5.85750e+03	2.62750e+03
347	5.81250e+03	2.64250e+03
348	5.82750e+03	2.64250e+03
349	5.84250e+03	2.64250e+03
350	5.85750e+03	2.64250e+03
351	5.81250e+03	2.65750e+03
352	5.82750e+03	2.65750e+03
353	5.84250e+03	2.65750e+03
354	5.85750e+03	2.65750e+03
355	5.81250e+03	2.67250e+03
356	5.82750e+03	2.67250e+03
357	5.84250e+03	2.67250e+03
358	5.85750e+03	2.67250e+03
359	5.81250e+03	2.68750e+03
360	5.82750e+03	2.68750e+03
361	5.84250e+03	2.68750e+03
362	5.85750e+03	2.68750e+03
363	5.81250e+03	2.70250e+03
364	5.82750e+03	2.70250e+03
365	5.84250e+03	2.70250e+03
366	5.85750e+03	2.70250e+03
367	5.81250e+03	2.71750e+03
368	5.82750e+03	2.71750e+03
369	5.84250e+03	2.71750e+03
370	5.85750e+03	2.71750e+03
371	5.81250e+03	2.73250e+03
372	5.82750e+03	2.73250e+03
373	5.84250e+03	2.73250e+03
374	5.85750e+03	2.73250e+03
375	5.81250e+03	2.74750e+03
376	5.82750e+03	2.74750e+03
377	5.84250e+03	2.74750e+03
378	5.85750e+03	2.74750e+03
379	5.81250e+03	2.76250e+03
380	5.82750e+03	2.76250e+03
381	5.84250e+03	2.76250e+03
382	5.85750e+03	2.76250e+03
383	5.81250e+03	2.77750e+03
384	5.82750e+03	2.77750e+03
385	5.84250e+03	2.77750e+03
386	5.85750e+03	2.77750e+03
387	5.81250e+03	2.79250e+03
388	5.82750e+03	2.79250e+03
389	5.84250e+03	2.79250e+03
390	5.85750e+03	2.79250e+03
391	5.81250e+03	2.80750e+03
392	5.82750e+03	2.80750e+03
393	5.84250e+03	2.80750e+03
394	5.85750e+03	2.80750e+03
395	5.81250e+03	4.95250e+03
396	5.82750e+03	4.95250e+03
397	5.84250e+03	4.95250e+03
398	5.85750e+03	4.95250e+03
399	5.81250e+03	4.96750e+03
400	5.82750e+03	4.96750e+03
401	5.84250e+03	4.96750e+03
402	5.85750e+03	4.96750e+03
403	5.81250e+03	4.98250e+03
404	5.82750e+03	4.98250e+03
405	5.84250e+03	4.98250e+03
406	5.85750e+03	4.98250e+03
407	5.81250e+03	4.99750e+03
408	5.82750e+03	4.99750e+03
409	5.84250e+03	4.99750e+03
410	5.85750e+03	4.99750e+03
411	5.81250e+03	5.01250e+03
412	5.82750e+03	5.01250e+03
413	5.84250e+03	5.01250e+03
414	5.85750e+03	5.01250e+03
415	5.81250e+03	5.02750e+03
416	5.82750e+03	5.02750e+03
417	5.84250e+03	5.02750e+03
418	5.85750e+03	5.02750e+03
419	5.81250e+03	5.04250e+03
420	5.82750e+03	5.04250e+03
421	5.84250e+03	5.04250e+03
422	5.85750e+03	5.04250e+03
423	5.81250e+03	5.05750e+03
424	5.82750e+03	5.05750e+03
425	5.84250e+03	5.05750e+03
426	5.85750e+03	5.05750e+03
427	5.81250e+03	5.07250e+03
428	5.82750e+03	5.07250e+03
429	5.84250e+03	5.07250e+03
430	5.85750e+03	5.07250e+03
431	5.81250e+03	5.08750e+03
432	5.82750e+03	5.08750e+03
433	5.84250e+03	5.08750e+03
434	5.85750e+03	5.08750e+03
435	5.81250e+03	5.10250e+03
436	5.82750e+03	5.10250e+03
437	5.84250e+03	5.10250e+03
438	5.85750e+03	5.10250e+03
439	5.81250e+03	5.11750e+03
440	5.82750e+03	5.11750e+03
441	5.84250e+03	5.11750e+03
442	5.85750e+03	5.11750e+03
443	5.81250e+03	5.13250e+03
444	5.82750e+03	5.13250e+03
445	5.84250e+03	5.13250e+03
446	5.85750e+03	5.13250e+03
447	5.81250e+03	5.14750e+03
448	5.82750e+03	5.14750e+03
449	5.84250e+03	5.14750e+03
450	5.85750e+03	5.14750e+03
451	5.81250e+03	5.16250e+03
452	5.82750e+03	5.16250e+03
453	5.84250e+03	5.16250e+03
454	5.85750e+03	5.16250e+03
455	5.81250e+03	5.17750e+03
456	5.82750e+03	5.17750e+03
457	5.84250e+03	5.17750e+03
458	5.85750e+03	5.17750e+03
459	5.81250e+03	5.19250e+03
460	5.82750e+03	5.19250e+03
461	5.84250e+03	5.19250e+03
462	5.85750e+03	5.19250e+03
463	5.81250e+03	5.20750e+03
464	5.82750e+03	5.20750e+03
465	5.84250e+03	5.20750e+03
466	5.85750e+03	5.20750e+03
467	5.81250e+03	5.22250e+03
468	5.82750e+03	5.22250e+03
469	5.84250e+03	5.22250e+03
470	5.85750e+03	5.22250e+03
471	5.81250e+03	5.23750e+03
472	5.82750e+03	5.23750e+03
473	5.84250e+03	5.23750e+03
474	5.85750e+03	5.23750e+03
475	5.81250e+03	5.25250e+03
476	5.82750e+03	5.25250e+03
477	5.84250e+03	5.25250e+03
478	5.85750e+03	5.25250e+03
479	5.81250e+03	5.26750e+03
480	5.82750e+03	5.26750e+03
481	5.84250e+03	5.26750e+03
482	5.85750e+03	5.26750e+03
483	5.81250e+03	5.28250e+03
484	5.82750e+03	5.28250e+03
485	5.84250e+03	5.28250e+03
486	5.85750e+03	5.28250e+03
487	5.81250e+03	5.29750e+03
488	5.82750e+03	5.29750e+03
489	5.84250e+03	5.29750e+03
490	5.85750e+03	5.29750e+03
491	1.04250e+03	1.80250e+03
492	1.04250e+03	1.81750e+03
493	1.04250e+03	1.83250e+03
494	1.04250e+03	1.87750e+03
495	1.04250e+03	1.89250e+03
496	1.04250e+03	1.92250e+03
497	1.04250e+03	1.95250e+03
498	1.04250e+03	1.99750e+03
499	1.04250e+03	2.07250e+03
500	1.04250e+03	2.11750e+03
501	1.04250e+03	2.16250e+03
502	1.04250e+03	2.22250e+03
503	1.04250e+03	2.25250e+03
504	1.04250e+03	2.35750e+03
505	1.04250e+03	2.40250e+03
506	1.04250e+03	4.29250e+03
507	1.04250e+03	4.30750e+03
508	1.04250e+03	4.32250e+03
509	1.04250e+03	4.36750e+03
510	1.04250e+03	4.38250e+03
511	1.04250e+03	4.41250e+03
512	1.04250e+03	4.44250e+03
513	1.04250e+03	4.48750e+03
514	1.04250e+03	4.56250e+03
515	1.04250e+03	4.60750e+03
516	1.04250e+03	4.65250e+03
517	1.04250e+03	4.71250e+03
518	1.04250e+03	4.74250e+03
519	1.04250e+03	4.84750e+03
520	1.04250e+03	4.89250e+03
521	1.05750e+03	1.84750e+03
522	1.05750e+03	1.95250e+03
523	1.05750e+03	2.02750e+03
524	1.05750e+03	2.08750e+03
525	1.05750e+03	2.14750e+03
526	1.05750e+03	2.28250e+03
527	1.05750e+03	4.33750e+03
528	1.05750e+03	4.44250e+03
529	1.05750e+03	4.51750e+03
530	1.05750e+03	4.57750e+03
531	1.05750e+03	4.63750e+03
532	1.05750e+03	4.77250e+03
533	1.07250e+03	1.81750e+03
534	1.07250e+03	1.83250e+03
535	1.07250e+03	1.89250e+03
536	1.07250e+03	1.96750e+03
537	1.07250e+03	2.16250e+03
538	1.07250e+03	2.22250e+03
539	1.07250e+03	2.28250e+03
540	1.07250e+03	2.35750e+03
541	1.07250e+03	4.30750e+03
542	1.07250e+03	4.32250e+03
543	1.07250e+03	4.38250e+03
544	1.07250e+03	4.45750e+03
545	1.07250e+03	4.65250e+03
546	1.07250e+03	4.71250e+03
547	1.07250e+03	4.77250e+03
548	1.07250e+03	4.84750e+03
549	1.08750e+03	1.78750e+03
550	1.08750e+03	1.84750e+03
551	1.08750e+03	1.87750e+03
552	1.08750e+03	1.96750e+03
553	1.08750e+03	1.99750e+03
554	1.08750e+03	2.02750e+03
555	1.08750e+03	2.08750e+03
556	1.08750e+03	2.11750e+03
557	1.08750e+03	2.14750e+03
558	1.08750e+03	2.19250e+03
559	1.08750e+03	2.25250e+03
560	1.08750e+03	2.40250e+03
561	1.08750e+03	4.27750e+03
562	1.08750e+03	4.33750e+03
563	1.08750e+03	4.36750e+03
564	1.08750e+03	4.45750e+03
565	1.08750e+03	4.48750e+03
566	1.08750e+03	4.51750e+03
567	1.08750e+03	4.57750e+03
568	1.08750e+03	4.60750e+03
569	1.08750e+03	4.63750e+03
570	1.08750e+03	4.68250e+03
571	1.08750e+03	4.74250e+03
572	1.08750e+03	4.89250e+03
573	5.81250e+03	1.80250e+03
574	5.81250e+03	1.81750e+03
575	5.81250e+03	1.83250e+03
576	5.81250e+03	1.87750e+03
577	5.81250e+03	1.89250e+03
578	5.81250e+03	1.92250e+03
579	5.81250e+03	1.95250e+03
580	5.81250e+03	1.99750e+03
581	5.81250e+03	2.07250e+03
582	5.81250e+03	2.11750e+03
583	5.81250e+03	2.16250e+03
584	5.81250e+03	2.22250e+03
585	5.81250e+03	2.25250e+03
586	5.81250e+03	2.35750e+03
587	5.81250e+03	2.40250e+03
588	5.81250e+03	4.29250e+03
589	5.81250e+03	4.30750e+03
590	5.81250e+03	4.32250e+03
591	5.81250e+03	4.36750e+03
592	5.81250e+03	4.38250e+03
593	5.81250e+03	4.41250e+03
594	5.81250e+03	4.44250e+03
595	5.81250e+03	4.48750e+03
596	5.81250e+03	4.56250e+03
597	5.81250e+03	4.60750e+03
598	5.81250e+03	4.65250e+03
599	5.81250e+03	4.71250e+03
600	5.81250e+03	4.74250e+03
601	5.81250e+03	4.84750e+03
602	5.81250e+03	4.89250e+03
603	5.82750e+03	1.84750e+03
604	5.82750e+03	1.95250e+03
605	5.82750e+03	2.02750e+03
606	5.82750e+03	2.08750e+03
607	5.82750e+03	2.14750e+03
608	5.82750e+03	2.28250e+03
609	5.82750e+03	4.33750e+03
610	5.82750e+03	4.44250e+03
611	5.82750e+03	4.51750e+03
612	5.82750e+03	4.57750e+03
613	5.82750e+03	4.63750e+03
614	5.82750e+03	4.77250e+03
615	5.84250e+03	1.81750e+03
616	5.84250e+03	1.83250e+03
617	5.84250e+03	1.89250e+03
618	5.84250e+03	1.96750e+03
619	5.84250e+03	2.16250e+03
620	5.84250e+03	2.22250e+03
621	5.84250e+03	2.28250e+03
622	5.84250e+03	2.35750e+03
623	5.84250e+03	4.30750e+03
624	5.84250e+03	4.32250e+03
625	5.84250e+03	4.38250e+03
626	5.84250e+03	4.45750e+03
627	5.84250e+03	4.65250e+03
628	5.84250e+03	4.71250e+03
629	5.84250e+03	4.77250e+03
630	5.84250e+03	4.84750e+03
631	5.85750e+03	1.78750e+03
632	5.85750e+03	1.84750e+03
633	5.85750e+03	1.87750e+03
634	5.85750e+03	1.96750e+03
635	5.85750e+03	1.99750e+03
636	5.85750e+03	2.02750e+03
637	5.85750e+03	2.08750e+03
638	5.85750e+03	2.11750e+03
639	5.85750e+03	2.14750e+03
640	5.85750e+03	2.19250e+03
641	5.85750e+03	2.25250e+03
642	5.85750e+03	2.40250e+03
643	5.85750e+03	4.27750e+03
644	5.85750e+03	4.33750e+03
645	5.85750e+03	4.36750e+03
646	5.85750e+03	4.45750e+03
647	5.85750e+03	4.48750e+03
648	5.85750e+03	4.51750e+03
649	5.85750e+03	4.57750e+03
650	5.85750e+03	4.60750e+03
651	5.85750e+03	4.63750e+03
652	5.85750e+03	4.68250e+03
653	5.85750e+03	4.74250e+03
654	5.85750e+03	4.89250e+03
ITEMS SECTION	(INDEX, PROFIT, WEIGHT, ASSIGNED NODE NUMBER): 
1	1	1008	2
2	896	1006	3
3	367	1006	4
4	690	1001	5
5	613	1006	6
6	874	1001	7
7	122	1009	8
8	486	1004	9
9	823	1001	10
10	463	1003	11
11	589	1004	12
12	325	1009	13
13	1000	1006	14
14	776	1005	15
15	123	1000	16
16	356	1000	17
17	305	1007	18
18	47	1006	19
19	645	1008	20
20	139	1000	21
21	247	1009	22
22	211	1009	23
23	100	1007	24
24	627	1004	25
25	760	1002	26
26	776	1006	27
27	475	1006	28
28	937	1007	29
29	101	1008	30
30	281	1008	31
31	751	1008	32
32	530	1006	33
33	240	1004	34
34	248	1005	35
35	768	1000	36
36	31	1003	37
37	613	1007	38
38	881	1004	39
39	367	1007	40
40	712	1000	41
41	410	1007	42
42	157	1009	43
43	824	1000	44
44	242	1000	45
45	472	1005	46
46	722	1006	47
47	775	1001	48
48	371	1006	49
49	337	1003	50
50	885	1008	51
51	204	1008	52
52	594	1008	53
53	226	1006	54
54	226	1002	55
55	921	1000	56
56	537	1006	57
57	112	1001	58
58	959	1005	59
59	392	1001	60
60	709	1006	61
61	940	1002	62
62	943	1006	63
63	79	1001	64
64	922	1004	65
65	361	1000	66
66	947	1003	67
67	861	1009	68
68	937	1009	69
69	754	1005	70
70	872	1000	71
71	636	1001	72
72	459	1009	73
73	390	1001	74
74	141	1005	75
75	111	1009	76
76	588	1003	77
77	6	1001	78
78	155	1009	79
79	723	1008	80
80	723	1009	81
81	667	1004	82
82	829	1007	83
83	487	1004	84
84	590	1008	85
85	370	1006	86
86	823	1007	87
87	173	1002	88
88	56	1000	89
89	977	1005	90
90	681	1005	91
91	689	1007	92
92	933	1005	93
93	809	1002	94
94	587	1002	95
95	686	1003	96
96	466	1000	97
97	356	1004	98
98	784	1001	99
99	862	1009	100
100	223	1009	101
101	541	1006	102
102	61	1002	103
103	416	1001	104
104	62	1001	105
105	205	1002	106
106	152	1008	107
107	913	1009	108
108	267	1006	109
109	249	1003	110
110	187	1009	111
111	174	1003	112
112	939	1001	113
113	519	1004	114
114	56	1008	115
115	381	1008	116
116	551	1004	117
117	128	1006	118
118	812	1009	119
119	753	1008	120
120	544	1003	121
121	684	1005	122
122	830	1004	123
123	725	1009	124
124	330	1003	125
125	115	1000	126
126	38	1002	127
127	445	1005	128
128	619	1009	129
129	648	1000	130
130	896	1005	131
131	658	1006	132
132	306	1005	133
133	806	1008	134
134	800	1002	135
135	612	1002	136
136	354	1000	137
137	300	1008	138
138	174	1008	139
139	751	1002	140
140	126	1001	141
141	603	1001	142
142	665	1000	143
143	209	1006	144
144	308	1000	145
145	308	1009	146
146	677	1009	147
147	863	1005	148
148	292	1001	149
149	444	1007	150
150	295	1000	151
151	413	1000	152
152	72	1007	153
153	321	1003	154
154	981	1003	155
155	797	1004	156
156	507	1008	157
157	715	1001	158
158	512	1007	159
159	892	1004	160
160	76	1004	161
161	22	1008	162
162	643	1003	163
163	866	1004	164
164	74	1004	165
165	508	1005	166
166	243	1000	167
167	776	1006	168
168	326	1008	169
169	694	1005	170
170	662	1008	171
171	17	1008	172
172	654	1007	173
173	129	1006	174
174	662	1000	175
175	123	1007	176
176	182	1008	177
177	554	1002	178
178	421	1002	179
179	685	1009	180
180	470	1009	181
181	77	1006	182
182	264	1001	183
183	624	1006	184
184	961	1004	185
185	55	1001	186
186	254	1001	187
187	880	1009	188
188	921	1009	189
189	809	1009	190
190	680	1007	191
191	554	1008	192
192	62	1006	193
193	573	1001	194
194	568	1003	195
195	37	1004	196
196	910	1002	197
197	632	1007	198
198	211	1000	199
199	67	1005	200
200	763	1003	201
201	568	1007	202
202	681	1001	203
203	814	1007	204
204	514	1006	205
205	326	1001	206
206	41	1007	207
207	909	1001	208
208	192	1005	209
209	59	1001	210
210	352	1001	211
211	678	1006	212
212	885	1006	213
213	596	1007	214
214	400	1001	215
215	411	1003	216
216	746	1005	217
217	535	1006	218
218	82	1009	219
219	399	1008	220
220	412	1009	221
221	636	1002	222
222	983	1004	223
223	360	1000	224
224	120	1005	225
225	870	1007	226
226	808	1001	227
227	4	1001	228
228	391	1007	229
229	810	1005	230
230	819	1002	231
231	958	1006	232
232	209	1006	233
233	717	1000	234
234	359	1002	235
235	895	1006	236
236	419	1006	237
237	504	1003	238
238	588	1007	239
239	719	1008	240
240	323	1000	241
241	341	1006	242
242	965	1000	243
243	859	1008	244
244	456	1000	245
245	760	1001	246
246	135	1002	247
247	390	1009	248
248	780	1008	249
249	496	1005	250
250	1	1005	251
251	906	1000	252
252	171	1005	253
253	437	1004	254
254	164	1003	255
255	142	1007	256
256	876	1000	257
257	265	1008	258
258	762	1001	259
259	319	1005	260
260	780	1002	261
261	41	1001	262
262	33	1006	263
263	720	1001	264
264	887	1003	265
265	907	1005	266
266	551	1003	267
267	732	1009	268
268	969	1008	269
269	679	1004	270
270	228	1001	271
271	168	1001	272
272	654	1009	273
273	48	1009	274
274	549	1000	275
275	260	1000	276
276	112	1005	277
277	450	1000	278
278	925	1005	279
279	240	1000	280
280	375	1009	281
281	875	1004	282
282	299	1006	283
283	969	1009	284
284	215	1005	285
285	435	1000	286
286	648	1002	287
287	515	1004	288
288	351	1001	289
289	582	1001	290
290	32	1000	291
291	901	1001	292
292	902	1007	293
293	494	1001	294
294	766	1009	295
295	602	1006	296
296	494	1008	297
297	147	1000	298
298	418	1000	299
299	628	1006	300
300	219	1006	301
301	837	1001	302
302	340	1005	303
303	441	1002	304
304	315	1006	305
305	109	1000	306
306	343	1007	307
307	616	1004	308
308	532	1008	309
309	522	1007	310
310	897	1003	311
311	514	1008	312
312	986	1002	313
313	888	1001	314
314	759	1005	315
315	323	1000	316
316	176	1001	317
317	919	1002	318
318	67	1007	319
319	503	1009	320
320	556	1009	321
321	716	1004	322
322	319	1002	323
323	471	1009	324
324	517	1008	325
325	105	1008	326
326	153	1007	327
327	140	1001	328
328	886	1004	329
329	692	1003	330
330	319	1009	331
331	560	1000	332
332	642	1000	333
333	696	1003	334
334	258	1007	335
335	250	1008	336
336	639	1008	337
337	372	1004	338
338	132	1001	339
339	856	1002	340
340	453	1007	341
341	503	1008	342
342	539	1005	343
343	819	1003	344
344	126	1002	345
345	430	1006	346
346	598	1001	347
347	696	1003	348
348	597	1007	349
349	697	1006	350
350	52	1008	351
351	652	1009	352
352	625	1004	353
353	91	1007	354
354	546	1005	355
355	317	1003	356
356	313	1005	357
357	89	1000	358
358	283	1006	359
359	917	1000	360
360	806	1009	361
361	912	1001	362
362	511	1002	363
363	168	1003	364
364	758	1000	365
365	392	1003	366
366	646	1007	367
367	114	1008	368
368	5	1007	369
369	989	1005	370
370	228	1001	371
371	131	1008	372
372	699	1007	373
373	386	1000	374
374	229	1008	375
375	621	1001	376
376	371	1009	377
377	574	1006	378
378	495	1007	379
379	674	1004	380
380	255	1001	381
381	352	1001	382
382	588	1007	383
383	176	1008	384
384	935	1006	385
385	325	1004	386
386	167	1002	387
387	550	1007	388
388	457	1006	389
389	478	1005	390
390	892	1005	391
391	942	1008	392
392	991	1007	393
393	988	1006	394
394	866	1009	395
395	123	1005	396
396	86	1008	397
397	70	1000	398
398	186	1006	399
399	314	1005	400
400	163	1007	401
401	119	1002	402
402	774	1005	403
403	74	1002	404
404	661	1004	405
405	386	1002	406
406	741	1002	407
407	541	1007	408
408	152	1009	409
409	143	1006	410
410	131	1009	411
411	47	1007	412
412	574	1004	413
413	229	1005	414
414	275	1005	415
415	787	1005	416
416	661	1007	417
417	320	1001	418
418	815	1001	419
419	699	1002	420
420	709	1006	421
421	458	1003	422
422	323	1004	423
423	286	1009	424
424	721	1000	425
425	907	1004	426
426	743	1007	427
427	185	1004	428
428	843	1007	429
429	794	1001	430
430	524	1002	431
431	233	1005	432
432	841	1007	433
433	491	1009	434
434	427	1009	435
435	893	1001	436
436	396	1001	437
437	25	1003	438
438	547	1006	439
439	638	1009	440
440	590	1003	441
441	90	1008	442
442	506	1002	443
443	615	1002	444
444	65	1008	445
445	920	1004	446
446	968	1008	447
447	839	1006	448
448	828	1003	449
449	52	1003	450
450	145	1000	451
451	491	1005	452
452	263	1001	453
453	723	1002	454
454	993	1009	455
455	935	1007	456
456	859	1006	457
457	218	1001	458
458	535	1007	459
459	156	1007	460
460	364	1005	461
461	315	1004	462
462	380	1001	463
463	80	1008	464
464	17	1004	465
465	984	1003	466
466	427	1007	467
467	675	1009	468
468	336	1005	469
469	244	1009	470
470	672	1004	471
471	582	1005	472
472	52	1005	473
473	487	1006	474
474	355	1007	475
475	547	1002	476
476	736	1001	477
477	256	1006	478
478	108	1000	479
479	153	1001	480
480	691	1005	481
481	786	1004	482
482	654	1007	483
483	975	1003	484
484	972	1003	485
485	585	1003	486
486	229	1000	487
487	654	1005	488
488	469	1008	489
489	20	1005	490
490	770	1008	491
491	162	1000	492
492	90	1008	493
493	754	1009	494
494	267	1008	495
495	223	1008	496
496	928	1006	497
497	15	1005	498
498	637	1003	499
499	493	1009	500
500	208	1005	501
501	78	1006	502
502	292	1005	503
503	349	1008	504
504	219	1007	505
505	781	1005	506
506	591	1006	507
507	763	1005	508
508	245	1007	509
509	382	1003	510
510	534	1002	511
511	108	1000	512
512	852	1009	513
513	146	1002	514
514	941	1000	515
515	15	1001	516
516	207	1001	517
517	270	1004	518
518	856	1002	519
519	262	1003	520
520	681	1000	521
521	431	1003	522
522	71	1002	523
523	211	1005	524
524	53	1001	525
525	895	1007	526
526	289	1009	527
527	621	1005	528
528	881	1003	529
529	944	1000	530
530	962	1009	531
531	882	1007	532
532	869	1003	533
533	645	1008	534
534	823	1009	535
535	988	1004	536
536	467	1009	537
537	21	1001	538
538	485	1007	539
539	879	1001	540
540	478	1002	541
541	274	1008	542
542	991	1000	543
543	286	1001	544
544	276	1005	545
545	339	1004	546
546	815	1002	547
547	50	1009	548
548	478	1005	549
549	840	1001	550
550	914	1009	551
551	373	1001	552
552	293	1000	553
553	452	1004	554
554	495	1002	555
555	233	1002	556
556	388	1000	557
557	41	1000	558
558	573	1008	559
559	283	1005	560
560	434	1001	561
561	930	1002	562
562	154	1000	563
563	123	1007	564
564	862	1005	565
565	530	1003	566
566	104	1000	567
567	779	1003	568
568	459	1007	569
569	823	1002	570
570	343	1008	571
571	246	1000	572
572	883	1009	573
573	227	1001	574
574	823	1004	575
575	32	1009	576
576	126	1005	577
577	166	1000	578
578	324	1006	579
579	361	1006	580
580	706	1003	581
581	503	1007	582
582	419	1001	583
583	195	1001	584
584	945	1007	585
585	970	1009	586
586	257	1008	587
587	41	1009	588
588	352	1001	589
589	137	1008	590
590	192	1003	591
591	41	1009	592
592	380	1001	593
593	222	1005	594
594	52	1005	595
595	656	1007	596
596	612	1009	597
597	364	1009	598
598	199	1004	599
599	826	1003	600
600	652	1001	601
601	474	1000	602
602	858	1005	603
603	480	1007	604
604	582	1000	605
605	369	1008	606
606	597	1006	607
607	633	1002	608
608	360	1008	609
609	715	1007	610
610	980	1005	611
611	652	1007	612
612	266	1009	613
613	236	1000	614
614	146	1007	615
615	50	1007	616
616	310	1007	617
617	387	1006	618
618	950	1001	619
619	94	1009	620
620	953	1006	621
621	799	1005	622
622	530	1004	623
623	422	1009	624
624	702	1004	625
625	835	1001	626
626	920	1005	627
627	73	1007	628
628	455	1009	629
629	972	1007	630
630	462	1005	631
631	392	1001	632
632	5	1008	633
633	487	1006	634
634	969	1002	635
635	735	1000	636
636	869	1000	637
637	454	1006	638
638	570	1009	639
639	290	1006	640
640	683	1000	641
641	193	1004	642
642	374	1007	643
643	842	1006	644
644	191	1003	645
645	911	1004	646
646	31	1004	647
647	40	1002	648
648	788	1002	649
649	852	1006	650
650	742	1005	651
651	446	1002	652
652	142	1003	653
653	906	1001	654
